10J3M/DAT/10J3MNNA-12.dat
10 3
28.0574 787.2177
23.8932 570.885
21.4924 461.9233
30.895 954.501
22.2206 493.7551
28.3632 804.4711
33.1884 1101.4699
25.6783 659.3751
29.8529 891.1956
18.9151 357.781
7082.5748