10J3M/SOL/10J3MNNA-12.sol
solution status: optimal solution found
objective value:                     87.5188333333333
x#1#2                                               1 	(obj:0)
x#2#1                                               1 	(obj:0)
x#3#1                                               1 	(obj:0)
x#4#3                                               1 	(obj:0)
x#5#1                                               1 	(obj:0)
x#6#2                                               1 	(obj:0)
x#7#3                                               1 	(obj:0)
x#8#1                               0.775465405939386 	(obj:0)
x#8#2                               0.224534594060614 	(obj:0)
x#9#2                               0.848579758303771 	(obj:0)
x#9#3                               0.151420241696229 	(obj:0)
x#10#3                                              1 	(obj:0)
z                                    87.5188333333333 	(obj:1)
